20 20
36 95 1
91 14 1
36 16 1
93 91 1
17 61 1
98 82 1
56 43 1
49 65 1
65 5 1
25 50 1
87 25 1
38 83 1
100 14 1
30 40 1
16 17 1
81 33 1
80 11 1
1 7 1
68 8 1
35 38 1
100 100 
100 100 
100 100 
100 100 
100 100 
100 100 
100 100 
100 100 
100 100 
100 100 
100 100 
100 100 
100 100 
100 100 
100 100 
100 100 
100 100 
100 100 
100 100 
100 100 
